ws_caric/src/star_planner/utils/lkh_tsp_solver/resource/jurong_cluster.tsp
NAME : single_frontier
TYPE : ATSP
DIMENSION : 5
EDGE_WEIGHT_TYPE : EXPLICIT
EDGE_WEIGHT_FORMAT : FULL_MATRIX
EDGE_WEIGHT_SECTION
0 1027 1414 200205 259 
0 0 2068 1000000 4243 
0 2068 0 1000000 5192 
0 1000000 1000000 0 1000000 
0 4243 5192 1000000 0 
EOF