ws_caric/src/star_planner/utils/lkh_tsp_solver/resource/jurong_cluster.txt
NAME : single_frontier.1006570.tour
COMMENT : Length = 1006570
COMMENT : Found by LKH [Keld Helsgaun] Mon Nov 20 15:25:30 2023
TYPE : TOUR
DIMENSION : 5
TOUR_SECTION
1
5
2
3
4
-1
EOF
